c User generated cnf file
p cnf 12 31
10 -12 5 0 
11 -8 4 0 
-12 1 5 0 
12 -11 8 0 
7 1 -3 0 
-11 5 10 0 
6 -4 6 0 
1 12 -8 0 
1 10 -2 0 
-1 8 7 0 
-9 12 3 0 
-1 10 7 0 
-5 7 1 0 
-4 7 9 0 
8 -1 7 0 
-10 10 10 0 
-4 5 6 0 
-12 9 1 0 
10 6 -10 0 
6 -7 10 0 
7 -1 6 0 
5 11 -5 0 
1 4 -12 0 
6 -6 7 0 
2 7 -2 0 
12 -10 12 0 
6 -11 8 0 
11 -6 5 0 
1 12 -11 0 
-1 2 7 0 
7 -6 12 0 
